WARNING: for repeatability, setting FPU to use double precision
============================[ Problem Statistics ]=============================
|                                                                             |
|  Number of variables:           251                                         |
|  Number of clauses:            1008                                         |
|  Parse time:                   0.00 s                                       |
|                                                                             |
============================[ Search Statistics ]==============================
| Conflicts |          ORIGINAL         |          LEARNT          | Progress |
|           |    Vars  Clauses Literals |    Limit  Clauses Lit/Cl |          |
===============================================================================
===============================================================================
restarts              : 1
conflicts             : 22             (inf /sec)
decisions             : 132            (0.00 % random) (inf /sec)
propagations          : 708            (inf /sec)
conflict literals     : 66             (29.03 % deleted)
Memory used           : 5.00 MB
CPU time              : 0 s

UNSATISFIABLE
